src/asp/benchmarks/small9.lp
citta(foligno).
citta(umbertide).
citta(spoleto).

richiesta(foligno, strade, 222).
richiesta(foligno, fiumi, 1256).
richiesta(foligno, scuole, 38).
richiesta(foligno, parchi, 848).
richiesta(foligno, energia, 944).

richiesta(umbertide, strade, 22).
richiesta(umbertide, fiumi, 375).
richiesta(umbertide, scuole, 86).
richiesta(umbertide, parchi, 962).
richiesta(umbertide, energia, 511).

richiesta(spoleto, strade, 952).
richiesta(spoleto, fiumi, 3170).
richiesta(spoleto, scuole, 80).
richiesta(spoleto, parchi, 54).
richiesta(spoleto, energia, 471).

