src/minizinc/benchmarks/small9.dzn
COMUNI = {
	corciano,
	amelia,
	spoleto,
};

NUMERO_COMUNI = 3;

ABITANTI_PER_COMUNE = [21, 11, 36];

STRADE_TRA_COMUNI = [|
	false, false, false |
	false, false, false |
	false, false, false |
|];

RICHIESTE = [|
	574, 1017, 680, 653, 86 |
	56, 313, 130, 691, 3862 |
	18, 245, 1252, 76, 340 |
|];
